Copyright (C) 2013-2015, Filipe Brandao
Build (method = -2)
  #dp: 790
  Step-3' Graph: 58 vertices and 342 arcs (0.00s)
  Step-4' Graph: 36 vertices and 298 arcs (0.00s)
  #V4/#V3 = 0.62
  #A4/#A3 = 0.87
Ready! (0.00s)
Optimize a model with 85 rows, 299 columns and 829 nonzeros
Found heuristic solution: objective 36
Presolve removed 33 rows and 36 columns
Presolve time: 0.00s
Presolved: 52 rows, 263 columns, 710 nonzeros
Variable types: 0 continuous, 263 integer (201 binary)
Optimize a model with 52 rows, 263 columns and 710 nonzeros
Presolved: 52 rows, 263 columns, 710 nonzeros

Root barrier log...

Ordering time: 0.00s

Barrier statistics:
 AA' NZ     : 3.620e+02
 Factor NZ  : 9.190e+02
 Factor Ops : 1.984e+04 (less than 1 second per iteration)
 Threads    : 1

                  Objective                Residual
Iter       Primal          Dual         Primal    Dual     Compl     Time
   0   2.99519204e+02 -4.46299617e+02  6.86e+02 1.51e-01  5.58e+00     0s
   1   8.59448621e+01 -1.12118331e+02  9.02e+01 4.44e-16  8.51e-01     0s
   2   4.06414546e+01 -4.88201000e+00  5.30e+00 6.66e-16  1.07e-01     0s
   3   3.46101278e+01  1.78599571e+01  8.30e-01 2.22e-16  3.37e-02     0s
   4   3.09448296e+01  2.36823789e+01  7.65e-02 3.33e-16  1.39e-02     0s
   5   2.94799516e+01  2.48943312e+01  3.51e-02 1.86e-16  8.77e-03     0s
   6   2.86707743e+01  2.82647267e+01  6.84e-03 1.90e-16  7.80e-04     0s
   7   2.85052582e+01  2.84852419e+01  1.72e-04 1.13e-16  3.82e-05     0s
   8   2.85000054e+01  2.84999852e+01  3.78e-13 2.22e-16  3.82e-08     0s
   9   2.85000000e+01  2.85000000e+01  1.30e-13 3.33e-16  3.82e-11     0s
  10   2.85000000e+01  2.85000000e+01  2.68e-13 2.22e-16  3.82e-14     0s

Barrier solved model in 10 iterations and 0.00 seconds
Optimal objective 2.85000000e+01


Root relaxation: objective 2.850000e+01, 133 iterations, 0.00 seconds

    Nodes    |    Current Node    |     Objective Bounds      |     Work
 Expl Unexpl |  Obj  Depth IntInf | Incumbent    BestBd   Gap | It/Node Time

     0     0   28.50000    0   10   36.00000   28.50000  20.8%     -    0s
H    0     0                      29.0000000   28.50000  1.72%     -    0s

Explored 0 nodes (156 simplex iterations) in 0.01 seconds
Thread count was 1 (of 4 available processors)

Optimal solution found (tolerance 0.00e+00)
Best objective 2.900000000000e+01, best bound 2.900000000000e+01, gap 0.0%
Preprocessing time: 0.00 seconds
Gurobi run time: 0.01 seconds
Total run time: 0.01 seconds
Objective: 29
Solution:
1 x [i=1]
1 x [i=2]
1 x [i=3]
1 x [i=4]
1 x [i=5]
1 x [i=6]
1 x [i=7]
1 x [i=8, i=45]
1 x [i=9, i=46]
1 x [i=10, i=44]
1 x [i=11, i=43]
1 x [i=12, i=42]
1 x [i=13, i=47]
1 x [i=14, i=41]
1 x [i=15, i=48]
1 x [i=16, i=49]
1 x [i=17]
1 x [i=18, i=38]
1 x [i=19, i=37]
1 x [i=20, i=34]
1 x [i=21, i=36]
1 x [i=22, i=39]
1 x [i=23, i=33]
1 x [i=24, i=40]
1 x [i=25, i=32]
1 x [i=26, i=32]
1 x [i=27, i=35]
1 x [i=28, i=29]
1 x [i=30, i=31]
